Results/Experiment 1 Results/Existing Benchmark/RES_20/i-20-100-11.txt
solutions: 1 nodes: 2  modelTime: 141  solveTime: 17  totalTime: 160  modelSize: 7358  readTime: 2 matchingSize: 10
