Results/Experiment 2 Results/Existing Benchmark/i-20-100-11.lp
clingo version 5.4.0
Reading from tempSRTISolver.lp ...
Solving...
Answer: 1
matched(4,2) matched(15,3) matched(2,4) matched(12,5) matched(20,6) matched(18,7) matched(17,8) matched(19,9) matched(13,10) matched(1,11) matched(5,12) matched(10,13) matched(16,14) matched(3,15) matched(14,16) matched(8,17) matched(7,18) matched(9,19) matched(6,20) matched(11,1)
Optimization: 83
OPTIMUM FOUND

Models       : 1
  Optimum    : yes
Optimization : 83
Calls        : 1
Time         : 0.069s (Solving: 0.00s 1st Model: 0.00s Unsat: 0.00s)
CPU Time     : 0.067s
